/*********************************************
 * OPL 12.9.0.0 Data
 * Author: jfb2444
 * Creation Date: Aug 22, 2020 at 11:56:47 AM
 *********************************************/

 n = 8;							
 visNorth	= [3,3,-1,-1,2,3,2,4]; 	
 visSouth 	= [5,-1,-1,-1,-1,-1,3,2]; 	
 visWest	= [3,3,-1,-1,-1,-1,2,-1]; 	
 visEast	= [-1,-1,-1,3,2,-1,-1,3]; 	
 cellClue 	= [	[-1,-1,-1,-1,-1,-1,-1,4],
 				[-1,-1,-1,-1,-1,-1,1,-1],
 				[6,-1,-1,-1,-1,-1,-1,-1],
 				[-1,-1,-1,-1,1,7,-1,-1],
 				[-1,-1,2,-1,-1,-1,-1,-1],
 				[-1,-1,-1,6,-1,-1,-1,-1],
 				[-1,-1,-1,-1,-1,-1,5,-1],
 				[-1,-1,-1,-1,-1,-1,-1,-1] ]; 	